NAME : portcgen-26-5
COMMENT : portcgen N=26, seed=5
TYPE : TSP
DIMENSION : 26
EDGE_WEIGHT_TYPE : EUC_2D
NODE_COORD_SECTION
1 142948 16318
2 60642 -15534
3 28899 43713
4 -211479 274709
5 -224595 29562
6 18054 -35199
7 133474 170458
8 181173 193582
9 32047 -209327
10 200722 8894
11 21351 -142912
12 113669 176439
13 -93987 326182
14 -45866 158326
15 -66509 72473
16 373395 247363
17 -198193 178723
18 -82838 327275
19 277533 38719
20 68549 60681
21 -75667 160567
22 41565 -20615
23 91462 237497
24 -159751 -68995
25 -123548 -95966
26 176310 332535
